; PUSH cw_5 DUP1 PUSH cw_5 PUSH cw_7 PUSH cw_6 SWAP1 => PUSH cw_5 PUSH cw_5 DUP2 PUSH cw_6 PUSH cw_7
(set-option :produce-proofs true)
; 
(set-info :status unknown)
(declare-fun storage_t ((_ BitVec 256) (_ BitVec 256) (_ BitVec 256) Int (_ BitVec 256)) (_ BitVec 256))
(declare-fun w_6 () (_ BitVec 256))
(declare-fun w_7 () (_ BitVec 256))
(declare-fun w_5 () (_ BitVec 256))
(declare-fun storage_s ((_ BitVec 256) (_ BitVec 256) (_ BitVec 256) Int (_ BitVec 256)) (_ BitVec 256))
(declare-fun exc_halt_t (Int) Bool)
(declare-fun exc_halt_s (Int) Bool)
(declare-fun sc_t (Int) (_ BitVec 6))
(declare-fun stack_t ((_ BitVec 256) (_ BitVec 256) (_ BitVec 256) Int (_ BitVec 6)) (_ BitVec 256))
(declare-fun stack_s ((_ BitVec 256) (_ BitVec 256) (_ BitVec 256) Int (_ BitVec 6)) (_ BitVec 256))
(declare-fun sc_s (Int) (_ BitVec 6))
(declare-fun used_gas_t ((_ BitVec 256) (_ BitVec 256) (_ BitVec 256) Int) Int)
(declare-fun used_gas_s ((_ BitVec 256) (_ BitVec 256) (_ BitVec 256) Int) Int)
(assert
 (let (($x3000 (forall ((w (_ BitVec 256)) )(let ((?x4803 (storage_t w_5 w_7 w_6 5 w)))
 (let ((?x10933 (storage_s w_5 w_7 w_6 6 w)))
 (= ?x10933 ?x4803))))
 ))
 (let (($x886 (exc_halt_t 5)))
 (let (($x772 (exc_halt_s 6)))
 (let (($x889 (= $x772 $x886)))
 (let (($x3182 (forall ((n (_ BitVec 6)) )(let ((?x919 (sc_t 5)))
 (let (($x8034 (bvsle ?x919 n)))
 (let ((?x382 (stack_t w_5 w_7 w_6 5 n)))
 (let ((?x4808 (stack_s w_5 w_7 w_6 6 n)))
 (let (($x1704 (= ?x4808 ?x382)))
 (or $x1704 $x8034)))))))
 ))
 (let ((?x919 (sc_t 5)))
 (let ((?x926 (sc_s 6)))
 (let (($x929 (= ?x926 ?x919)))
 (let ((?x7148 (used_gas_t w_5 w_7 w_6 0)))
 (let ((?x10422 (used_gas_s w_5 w_7 w_6 0)))
 (let (($x8931 (= ?x10422 ?x7148)))
 (let (($x7267 (forall ((w (_ BitVec 256)) )(let ((?x7272 (storage_t w_5 w_7 w_6 0 w)))
 (let ((?x5836 (storage_s w_5 w_7 w_6 0 w)))
 (= ?x5836 ?x7272))))
 ))
 (let (($x56 (exc_halt_t 0)))
 (let (($x57 (exc_halt_s 0)))
 (let (($x58 (= $x57 $x56)))
 (let (($x7045 (forall ((n (_ BitVec 6)) )(let ((?x3978 (stack_t w_5 w_7 w_6 0 n)))
 (let ((?x5364 (stack_s w_5 w_7 w_6 0 n)))
 (let (($x10581 (= ?x5364 ?x3978)))
 (let ((?x63 (sc_t 0)))
 (let (($x5499 (bvsle ?x63 n)))
 (or $x5499 $x10581)))))))
 ))
 (let ((?x63 (sc_t 0)))
 (let ((?x72 (sc_s 0)))
 (let (($x73 (= ?x72 ?x63)))
 (let (($x7722 (exc_halt_t 4)))
 (let (($x1133 (or $x7722 (not (= ((_ extract 6 6) (bvadd (_ bv1 7) (concat (_ bv0 1) (sc_t 4)))) (_ bv0 1))))))
 (let (($x8515 (forall ((w (_ BitVec 256)) )(let ((?x4820 (storage_t w_5 w_7 w_6 4 w)))
 (let ((?x4803 (storage_t w_5 w_7 w_6 5 w)))
 (= ?x4803 ?x4820))))
 ))
 (let (($x6387 (forall ((n (_ BitVec 6)) )(let ((?x11631 (sc_t 4)))
 (let (($x3774 (bvsle ?x11631 n)))
 (let ((?x1096 (stack_t w_5 w_7 w_6 4 n)))
 (let ((?x382 (stack_t w_5 w_7 w_6 5 n)))
 (or (= ?x382 ?x1096) $x3774))))))
 ))
 (let (($x11160 (= (used_gas_t w_5 w_7 w_6 5) (+ 3 (used_gas_t w_5 w_7 w_6 4)))))
 (let (($x6783 (exc_halt_t 3)))
 (let (($x5324 (or $x6783 (not (= ((_ extract 6 6) (bvadd (_ bv1 7) (concat (_ bv0 1) (sc_t 3)))) (_ bv0 1))))))
 (let (($x7653 (forall ((w (_ BitVec 256)) )(let ((?x9849 (storage_t w_5 w_7 w_6 3 w)))
 (let ((?x4820 (storage_t w_5 w_7 w_6 4 w)))
 (= ?x4820 ?x9849))))
 ))
 (let (($x8875 (forall ((n (_ BitVec 6)) )(let ((?x6438 (sc_t 3)))
 (let (($x7001 (bvsle ?x6438 n)))
 (let ((?x4887 (stack_t w_5 w_7 w_6 3 n)))
 (let ((?x1096 (stack_t w_5 w_7 w_6 4 n)))
 (or (= ?x1096 ?x4887) $x7001))))))
 ))
 (let ((?x6498 (used_gas_t w_5 w_7 w_6 4)))
 (let (($x9844 (not (bvsle (_ bv0 6) (bvadd (_ bv62 6) (sc_t 2))))))
 (let (($x2163 (exc_halt_t 2)))
 (let (($x4918 (or $x2163 $x9844 (not (= ((_ extract 6 6) (bvadd (_ bv1 7) (concat (_ bv0 1) (sc_t 2)))) (_ bv0 1))))))
 (let (($x232 (forall ((w (_ BitVec 256)) )(let ((?x8276 (storage_t w_5 w_7 w_6 2 w)))
 (let ((?x9849 (storage_t w_5 w_7 w_6 3 w)))
 (= ?x9849 ?x8276))))
 ))
 (let (($x9427 (forall ((n (_ BitVec 6)) )(let ((?x2714 (sc_t 2)))
 (let ((?x1572 (bvadd (_ bv62 6) ?x2714)))
 (let (($x9797 (bvsle ?x1572 n)))
 (let ((?x1215 (stack_t w_5 w_7 w_6 2 n)))
 (let ((?x4887 (stack_t w_5 w_7 w_6 3 n)))
 (or (= ?x4887 ?x1215) $x9797)))))))
 ))
 (let ((?x10976 (used_gas_t w_5 w_7 w_6 3)))
 (let (($x8633 (= (stack_t w_5 w_7 w_6 3 (bvadd (_ bv63 6) (sc_t 2))) (stack_t w_5 w_7 w_6 2 (bvadd (_ bv63 6) (sc_t 2))))))
 (let ((?x2714 (sc_t 2)))
 (let ((?x1572 (bvadd (_ bv62 6) ?x2714)))
 (let ((?x8488 (stack_t w_5 w_7 w_6 2 ?x1572)))
 (let (($x9396 (not (= ((_ extract 6 6) (bvadd (_ bv1 7) (concat (_ bv0 1) (sc_t 1)))) (_ bv0 1)))))
 (let (($x3508 (exc_halt_t 1)))
 (let (($x4710 (forall ((w (_ BitVec 256)) )(let ((?x4021 (storage_t w_5 w_7 w_6 1 w)))
 (let ((?x8276 (storage_t w_5 w_7 w_6 2 w)))
 (= ?x8276 ?x4021))))
 ))
 (let (($x4610 (forall ((n (_ BitVec 6)) )(let ((?x8345 (stack_t w_5 w_7 w_6 1 n)))
 (let ((?x1215 (stack_t w_5 w_7 w_6 2 n)))
 (or (bvsle (sc_t 1) n) (= ?x1215 ?x8345)))))
 ))
 (let (($x134 (= ?x2714 (bvadd (_ bv1 6) (sc_t 1)))))
 (let ((?x5807 (used_gas_t w_5 w_7 w_6 2)))
 (let (($x1609 (= $x3508 (or $x56 (not (= ((_ extract 6 6) (bvadd (_ bv1 7) (concat (_ bv0 1) ?x63))) (_ bv0 1)))))))
 (let (($x3989 (forall ((w (_ BitVec 256)) )(let ((?x7272 (storage_t w_5 w_7 w_6 0 w)))
 (let ((?x4021 (storage_t w_5 w_7 w_6 1 w)))
 (= ?x4021 ?x7272))))
 ))
 (let (($x1072 (forall ((n (_ BitVec 6)) )(let ((?x63 (sc_t 0)))
 (let (($x5499 (bvsle ?x63 n)))
 (let ((?x3978 (stack_t w_5 w_7 w_6 0 n)))
 (let ((?x8345 (stack_t w_5 w_7 w_6 1 n)))
 (or (= ?x8345 ?x3978) $x5499))))))
 ))
 (let ((?x8347 (sc_t 1)))
 (let (($x11604 (= ?x8347 (bvadd (_ bv1 6) ?x63))))
 (let (($x8682 (= $x772 (or (exc_halt_s 5) (not (bvsle (_ bv0 6) (bvadd (_ bv62 6) (sc_s 5))))))))
 (let (($x1949 (forall ((w (_ BitVec 256)) )(let ((?x7036 (storage_s w_5 w_7 w_6 5 w)))
 (let ((?x10933 (storage_s w_5 w_7 w_6 6 w)))
 (= ?x10933 ?x7036))))
 ))
 (let (($x2370 (forall ((n (_ BitVec 6)) )(let ((?x4319 (sc_s 5)))
 (let ((?x9001 (bvadd (_ bv62 6) ?x4319)))
 (let (($x7251 (bvsle ?x9001 n)))
 (let ((?x5243 (stack_s w_5 w_7 w_6 5 n)))
 (let ((?x4808 (stack_s w_5 w_7 w_6 6 n)))
 (or (= ?x4808 ?x5243) $x7251)))))))
 ))
 (let (($x7860 (= (used_gas_s w_5 w_7 w_6 6) (+ 3 (used_gas_s w_5 w_7 w_6 5)))))
 (let (($x11304 (= (stack_s w_5 w_7 w_6 6 (bvadd (_ bv62 6) ?x926)) (stack_s w_5 w_7 w_6 5 (bvadd (_ bv63 6) (sc_s 5))))))
 (let (($x6907 (= (stack_s w_5 w_7 w_6 6 (bvadd (_ bv63 6) ?x926)) (stack_s w_5 w_7 w_6 5 (bvadd (_ bv62 6) (sc_s 5))))))
 (let (($x7172 (exc_halt_s 4)))
 (let (($x6525 (or $x7172 (not (= ((_ extract 6 6) (bvadd (_ bv1 7) (concat (_ bv0 1) (sc_s 4)))) (_ bv0 1))))))
 (let (($x11317 (exc_halt_s 5)))
 (let (($x3452 (forall ((w (_ BitVec 256)) )(let ((?x6213 (storage_s w_5 w_7 w_6 4 w)))
 (let ((?x7036 (storage_s w_5 w_7 w_6 5 w)))
 (= ?x7036 ?x6213))))
 ))
 (let (($x3834 (forall ((n (_ BitVec 6)) )(let ((?x1768 (stack_s w_5 w_7 w_6 4 n)))
 (let ((?x5243 (stack_s w_5 w_7 w_6 5 n)))
 (or (= ?x5243 ?x1768) (bvsle (sc_s 4) n)))))
 ))
 (let ((?x913 (used_gas_s w_5 w_7 w_6 5)))
 (let (($x292 (exc_halt_s 3)))
 (let (($x4228 (or $x292 (not (= ((_ extract 6 6) (bvadd (_ bv1 7) (concat (_ bv0 1) (sc_s 3)))) (_ bv0 1))))))
 (let (($x1026 (= $x7172 $x4228)))
 (let (($x8588 (forall ((w (_ BitVec 256)) )(let ((?x11684 (storage_s w_5 w_7 w_6 3 w)))
 (let ((?x6213 (storage_s w_5 w_7 w_6 4 w)))
 (= ?x6213 ?x11684))))
 ))
 (let (($x4086 (forall ((n (_ BitVec 6)) )(let ((?x1007 (stack_s w_5 w_7 w_6 3 n)))
 (let ((?x1768 (stack_s w_5 w_7 w_6 4 n)))
 (let ((?x275 (sc_s 3)))
 (let (($x4511 (bvsle ?x275 n)))
 (or $x4511 (= ?x1768 ?x1007)))))))
 ))
 (let ((?x4305 (sc_s 4)))
 (let (($x6462 (= ?x4305 (bvadd (_ bv1 6) (sc_s 3)))))
 (let ((?x10143 (used_gas_s w_5 w_7 w_6 4)))
 (let (($x2505 (not (= ((_ extract 6 6) (bvadd (_ bv1 7) (concat (_ bv0 1) (sc_s 2)))) (_ bv0 1)))))
 (let (($x247 (exc_halt_s 2)))
 (let (($x7157 (forall ((w (_ BitVec 256)) )(let ((?x10172 (storage_s w_5 w_7 w_6 2 w)))
 (let ((?x11684 (storage_s w_5 w_7 w_6 3 w)))
 (= ?x11684 ?x10172))))
 ))
 (let (($x6891 (forall ((n (_ BitVec 6)) )(let ((?x855 (stack_s w_5 w_7 w_6 2 n)))
 (let ((?x1007 (stack_s w_5 w_7 w_6 3 n)))
 (or (bvsle (sc_s 2) n) (= ?x1007 ?x855)))))
 ))
 (let ((?x275 (sc_s 3)))
 (let (($x2296 (= ?x275 (bvadd (_ bv1 6) (sc_s 2)))))
 (let ((?x11124 (used_gas_s w_5 w_7 w_6 3)))
 (let (($x3738 (not (bvsle (_ bv0 6) (bvadd (_ bv63 6) (sc_s 1))))))
 (let (($x419 (not (= ((_ extract 6 6) (bvadd (_ bv1 7) (concat (_ bv0 1) (sc_s 1)))) (_ bv0 1)))))
 (let (($x189 (exc_halt_s 1)))
 (let (($x11591 (forall ((w (_ BitVec 256)) )(let ((?x10300 (storage_s w_5 w_7 w_6 1 w)))
 (let ((?x10172 (storage_s w_5 w_7 w_6 2 w)))
 (= ?x10172 ?x10300))))
 ))
 (let (($x11522 (forall ((n (_ BitVec 6)) )(let ((?x154 (sc_s 1)))
 (let ((?x7271 (bvadd (_ bv63 6) ?x154)))
 (let (($x8363 (bvsle ?x7271 n)))
 (let ((?x7243 (stack_s w_5 w_7 w_6 1 n)))
 (let ((?x855 (stack_s w_5 w_7 w_6 2 n)))
 (or (= ?x855 ?x7243) $x8363)))))))
 ))
 (let ((?x218 (sc_s 2)))
 (let (($x2550 (= ?x218 (bvadd (_ bv1 6) (sc_s 1)))))
 (let ((?x10248 (used_gas_s w_5 w_7 w_6 2)))
 (let ((?x154 (sc_s 1)))
 (let ((?x7271 (bvadd (_ bv63 6) ?x154)))
 (let ((?x9561 (stack_s w_5 w_7 w_6 1 ?x7271)))
 (let (($x9773 (= $x189 (or $x57 (not (= ((_ extract 6 6) (bvadd (_ bv1 7) (concat (_ bv0 1) ?x72))) (_ bv0 1)))))))
 (let (($x761 (forall ((w (_ BitVec 256)) )(let ((?x5836 (storage_s w_5 w_7 w_6 0 w)))
 (let ((?x10300 (storage_s w_5 w_7 w_6 1 w)))
 (= ?x10300 ?x5836))))
 ))
 (let (($x3681 (forall ((n (_ BitVec 6)) )(let ((?x5364 (stack_s w_5 w_7 w_6 0 n)))
 (let ((?x7243 (stack_s w_5 w_7 w_6 1 n)))
 (or (= ?x7243 ?x5364) (bvsle (sc_s 0) n)))))
 ))
 (let (($x6368 (= ?x154 (bvadd (_ bv1 6) ?x72))))
 (let (($x4911 (forall ((w (_ BitVec 256)) )(let ((?x5836 (storage_s w_5 w_7 w_6 0 w)))
 (= ?x5836 (_ bv0 256))))
 ))
 (let (($x5770 (= ?x10422 0)))
 (let (($x11443 (not $x57)))
 (let (($x1565 (= ?x72 (_ bv0 6))))
 (and $x1565 $x11443 $x5770 $x4911 (= (stack_s w_5 w_7 w_6 1 ?x72) w_5) (= (used_gas_s w_5 w_7 w_6 1) (+ 3 ?x10422)) $x6368 $x3681 $x761 $x9773 (= (stack_s w_5 w_7 w_6 2 (bvadd (_ bv63 6) ?x218)) ?x9561) (= (stack_s w_5 w_7 w_6 2 ?x7271) ?x9561) (= ?x10248 (+ 3 (used_gas_s w_5 w_7 w_6 1))) $x2550 $x11522 $x11591 (= $x247 (or $x189 $x419 $x3738)) (= (stack_s w_5 w_7 w_6 3 ?x218) w_5) (= ?x11124 (+ 3 ?x10248)) $x2296 $x6891 $x7157 (= $x292 (or $x247 $x2505)) (= (stack_s w_5 w_7 w_6 4 ?x275) w_7) (= ?x10143 (+ 3 ?x11124)) $x6462 $x4086 $x8588 $x1026 (= (stack_s w_5 w_7 w_6 5 ?x4305) w_6) (= ?x913 (+ 3 ?x10143)) (= (sc_s 5) (bvadd (_ bv1 6) ?x4305)) $x3834 $x3452 (= $x11317 $x6525) $x6907 $x11304 $x7860 (= ?x926 (sc_s 5)) $x2370 $x1949 $x8682 (= (stack_t w_5 w_7 w_6 1 ?x63) w_5) (= (used_gas_t w_5 w_7 w_6 1) (+ 3 ?x7148)) $x11604 $x1072 $x3989 $x1609 (= (stack_t w_5 w_7 w_6 2 ?x8347) w_5) (= ?x5807 (+ 3 (used_gas_t w_5 w_7 w_6 1))) $x134 $x4610 $x4710 (= $x2163 (or $x3508 $x9396)) (= (stack_t w_5 w_7 w_6 3 (bvadd (_ bv63 6) (sc_t 3))) ?x8488) (= (stack_t w_5 w_7 w_6 3 ?x1572) ?x8488) $x8633 (= ?x10976 (+ 3 ?x5807)) (= (sc_t 3) (bvadd (_ bv1 6) ?x2714)) $x9427 $x232 (= $x6783 $x4918) (= (stack_t w_5 w_7 w_6 4 (sc_t 3)) w_6) (= ?x6498 (+ 3 ?x10976)) (= (sc_t 4) (bvadd (_ bv1 6) (sc_t 3))) $x8875 $x7653 (= $x7722 $x5324) (= (stack_t w_5 w_7 w_6 5 (sc_t 4)) w_7) $x11160 (= ?x919 (bvadd (_ bv1 6) (sc_t 4))) $x6387 $x8515 (= $x886 $x1133) $x73 $x7045 $x58 $x7267 $x8931 (not (and $x929 $x3182 $x889 $x3000))))))))))))))))))))))))))))))))))))))))))))))))))))))))))))))))))))))))))))))))))))))))))))))))))))
(check-sat)
(get-proof)
